! RHF DKH2 old-TZVP KeepDens AIM MORead VeryTightSCF

%moinp "Jiang2010_SVP_INP.gbw"

%scf
 MaxIter 999
end

%pal
 nprocs 32
end

*xyz 0 1
Y    0.000000    0.000000    0.000000
O     -0.66533998     -1.90735993      1.18518996 
O     -1.06397996     -1.42001995     -1.51291994 
O     -0.76254997      0.82637997      2.09716892 
O     -2.02053892      1.11206996     -0.34926999 
O      1.08250996      2.00887893      0.36999999 
O      0.21421999      1.09557996     -2.10485892 
O      1.79373993     -0.47691998      1.57269894 
O      1.77345893     -1.16849996     -1.08148996 
C     -1.17320996     -3.02568889      0.88539997 newGTO "def2-SVP" end
C     -1.44488895     -2.62317890     -1.51844994 newGTO "def2-SVP" end
C     -1.37364995      1.89583893      2.37106891 newGTO "def2-SVP" end
C     -2.56017890      2.09510892      0.22275999 newGTO "def2-SVP" end
C      1.03188996      3.12780888     -0.18985999 newGTO "def2-SVP" end
C      0.25489999      2.33231891     -2.38462891 newGTO "def2-SVP" end
C     -1.46447895     -3.94276885      2.05136892 newGTO "def2-SVP" end
C     -1.50150994     -3.43634887     -0.39119999 newGTO "def2-SVP" end
C     -1.87093893     -3.19416888     -2.85477889 newGTO "def2-SVP" end
C     -1.15414996      2.47834891      3.73505886 newGTO "def2-SVP" end
C     -2.23925892      2.54747891      1.49713994 newGTO "def2-SVP" end
C     -3.64351886      2.82204889     -0.55491998 newGTO "def2-SVP" end
C      1.45859995      4.32103884      0.63649998 newGTO "def2-SVP" end
C      0.62120998      3.33760888     -1.51069994 newGTO "def2-SVP" end
C     -0.07738000      2.70005890     -3.80502886 newGTO "def2-SVP" end
H      1.31147495     -1.02332296      2.22630092 newGTO "def2-SVP" end
H      1.90554993      0.39604099      1.99945493 newGTO "def2-SVP" end
H      1.73401194     -1.12707896     -2.05466792 newGTO "def2-SVP" end
H      2.70157390     -1.31135895     -0.83152497 newGTO "def2-SVP" end
H     -0.54978398     -4.09646185      2.64328190 newGTO "def2-SVP" end
H     -1.86451493     -4.91816382      1.74750593 newGTO "def2-SVP" end
H     -2.19217892     -3.44966887      2.71337590 newGTO "def2-SVP" end
H     -1.90282793     -4.44203283     -0.51093098 newGTO "def2-SVP" end
H     -2.68715490     -2.58216190     -3.26597888 newGTO "def2-SVP" end
H     -2.19819292     -4.23930484     -2.79216790 newGTO "def2-SVP" end
H     -1.03366896     -3.12073488     -3.56480787 newGTO "def2-SVP" end
H     -1.39537095      1.72716394      4.50249983 newGTO "def2-SVP" end
H     -1.74827093      3.38174387      3.92020585 newGTO "def2-SVP" end
H     -0.08781500      2.72404790      3.85944086 newGTO "def2-SVP" end
H     -2.75228490      3.43634587      1.86294993 newGTO "def2-SVP" end
H     -3.21970088      3.20031488     -1.49671194 newGTO "def2-SVP" end
H     -4.08661885      3.65628586      0.00263000 newGTO "def2-SVP" end
H     -4.43364983      2.10610492     -0.82523097 newGTO "def2-SVP" end
H      0.77388497      4.42490684      1.49174894 newGTO "def2-SVP" end
H      1.46104095      5.25936480      0.06886700 newGTO "def2-SVP" end
H      2.46387591      4.14378185      1.04745296 newGTO "def2-SVP" end
H      0.61694698      4.36273884     -1.87777593 newGTO "def2-SVP" end
H      0.63775798      2.21189692     -4.48469983 newGTO "def2-SVP" end
H     -0.06002200      3.78149986     -3.98990685 newGTO "def2-SVP" end
H     -1.07144596      2.30371991     -4.05873985 newGTO "def2-SVP" end
*

